SECTION Graph
Nodes 204
Edges 374
E 1 177 1
E 1 180 2
E 2 162 45
E 2 188 1
E 3 178 7
E 3 182 5
E 3 186 1
E 3 187 5
E 4 186 3
E 5 46 1
E 5 94 3
E 5 99 1
E 5 110 9
E 6 46 1
E 6 98 3
E 6 104 2
E 6 114 9
E 7 121 1
E 7 162 94
E 8 99 9
E 8 110 1
E 9 104 9
E 9 114 2
E 9 118 1
E 9 125 5
E 10 141 70
E 10 158 2
E 10 160 1
E 11 147 66
E 11 161 5
E 11 162 1
E 11 183 37
E 12 89 6
E 12 96 2
E 12 106 5
E 12 113 10
E 13 108 6
E 13 113 2
E 13 120 3
E 13 123 5
E 14 62 6
E 14 66 2
E 14 72 3
E 14 84 10
E 15 81 6
E 15 84 2
E 15 92 3
E 16 51 2
E 16 52 1
E 16 53 2
E 16 63 10
E 17 19 3
E 17 61 2
E 17 65 1
E 18 48 8
E 18 49 2
E 18 52 3
E 18 57 10
E 19 57 2
E 20 149 38
E 20 163 5
E 21 163 6
E 21 165 1
E 21 168 1
E 21 169 1
E 22 151 37
E 22 163 1
E 22 164 5
E 23 163 1
E 23 166 5
E 24 25 1
E 24 109 3
E 24 116 2
E 25 117 2
E 26 131 1
E 26 138 1
E 26 152 65
E 27 96 5
E 27 106 2
E 27 109 4
E 28 29 10
E 28 106 4
E 28 109 2
E 28 116 3
E 29 119 4
E 29 128 1
E 29 130 3
E 30 31 1
E 30 82 3
E 30 86 2
E 31 85 1
E 31 87 2
E 32 89 10
E 32 103 1
E 32 108 2
E 32 113 6
E 33 66 5
E 33 74 1
E 33 77 2
E 34 35 10
E 34 82 2
E 34 83 1
E 34 86 3
E 35 97 1
E 35 101 2
E 35 102 3
E 36 37 1
E 36 54 3
E 36 59 2
E 37 58 1
E 37 60 2
E 38 62 10
E 38 73 1
E 38 81 2
E 38 84 6
E 39 40 2
E 39 51 2
E 39 53 2
E 40 54 1
E 40 55 2
E 41 56 10
E 41 67 1
E 41 70 2
E 41 71 3
E 42 43 1
E 43 45 2
E 43 47 1
E 44 48 10
E 44 57 8
E 46 95 3
E 46 111 9
E 47 48 2
E 47 49 8
E 49 50 3
E 50 51 1
E 50 52 2
E 52 61 10
E 53 55 2
E 53 64 10
E 54 56 2
E 55 56 1
E 55 67 10
E 56 59 3
E 57 61 3
E 58 62 2
E 58 66 6
E 59 60 1
E 59 71 10
E 60 62 1
E 60 73 10
E 61 63 1
E 63 64 2
E 63 65 2
E 64 67 2
E 64 68 2
E 65 68 2
E 67 69 2
E 68 69 2
E 69 70 1
E 70 76 3
E 71 73 1
E 71 76 2
E 72 75 1
E 72 88 10
E 73 78 2
E 74 79 2
E 74 80 2
E 75 77 1
E 75 90 10
E 76 78 1
E 77 80 1
E 77 91 10
E 78 81 1
E 79 82 1
E 79 83 2
E 80 83 2
E 80 93 10
E 83 97 10
E 84 88 3
E 85 89 2
E 85 96 6
E 86 87 1
E 86 102 10
E 87 89 1
E 87 103 10
E 88 90 1
E 88 92 2
E 90 91 1
E 90 94 2
E 91 93 1
E 91 95 2
E 92 94 1
E 92 99 3
E 93 97 2
E 93 98 2
E 94 95 1
E 95 98 1
E 97 100 2
E 98 100 2
E 100 101 1
E 100 104 3
E 101 105 3
E 101 118 12
E 102 103 1
E 102 105 2
E 103 107 2
E 104 120 12
E 105 107 1
E 106 112 5
E 107 108 1
E 108 115 5
E 110 111 1
E 111 114 1
E 112 119 5
E 112 150 74
E 113 119 5
E 114 121 5
E 115 124 6
E 115 126 7
E 116 117 1
E 116 130 10
E 117 131 10
E 117 148 66
E 118 126 5
E 118 127 5
E 119 122 1
E 120 124 2
E 120 136 9
E 121 125 2
E 122 123 1
E 122 128 4
E 123 129 4
E 124 137 7
E 124 141 9
E 125 127 1
E 126 133 5
E 126 137 6
E 127 133 5
E 128 129 1
E 128 132 3
E 129 135 3
E 129 136 3
E 130 131 1
E 130 132 1
E 131 134 1
E 132 134 1
E 132 135 1
E 133 143 6
E 134 138 1
E 134 139 1
E 135 139 1
E 136 141 2
E 136 142 5
E 137 143 5
E 137 144 9
E 138 140 1
E 138 154 65
E 139 140 1
E 140 142 3
E 140 156 65
E 141 144 7
E 142 145 9
E 142 158 65
E 143 146 9
E 144 145 5
E 144 146 5
E 145 147 5
E 145 161 66
E 146 147 5
E 148 149 1
E 148 150 5
E 149 151 5
E 150 151 1
E 150 152 5
E 151 153 5
E 152 153 1
E 152 154 1
E 153 155 1
E 153 164 37
E 154 155 1
E 154 156 1
E 155 157 1
E 155 165 37
E 156 157 1
E 156 158 3
E 157 159 3
E 157 167 37
E 158 159 1
E 159 160 2
E 159 171 37
E 160 161 7
E 160 174 37
E 161 179 37
E 164 165 1
E 164 166 2
E 165 167 1
E 166 168 1
E 167 169 1
E 167 171 3
E 168 170 1
E 169 170 1
E 169 172 3
E 170 173 3
E 171 172 1
E 171 174 2
E 172 173 1
E 172 175 2
E 173 176 2
E 173 177 5
E 174 175 1
E 174 179 7
E 175 176 1
E 175 181 7
E 176 178 5
E 176 182 7
E 177 178 2
E 178 180 1
E 179 181 1
E 179 183 5
E 180 186 7
E 181 182 1
E 181 184 5
E 182 185 5
E 183 184 1
E 184 185 1
E 185 187 5
E 186 188 5
E 187 188 1
E 1 189 100000
E 2 189 100000
E 3 189 100000
E 4 189 100000
E 5 190 100000
E 6 190 100000
E 7 190 100000
E 8 190 100000
E 9 190 100000
E 10 191 100000
E 11 191 100000
E 12 192 100000
E 13 192 100000
E 14 193 100000
E 15 193 100000
E 16 194 100000
E 17 194 100000
E 18 195 100000
E 19 195 100000
E 20 196 100000
E 21 196 100000
E 22 196 100000
E 23 196 100000
E 24 197 100000
E 25 197 100000
E 26 197 100000
E 27 198 100000
E 28 198 100000
E 29 198 100000
E 30 199 100000
E 31 199 100000
E 32 199 100000
E 33 200 100000
E 34 200 100000
E 35 200 100000
E 36 201 100000
E 37 201 100000
E 38 201 100000
E 39 202 100000
E 40 202 100000
E 41 202 100000
E 42 203 100000
E 43 203 100000
E 44 203 100000
E 45 204 100000
E 46 190 100000
END

SECTION Terminals
Terminals 16
T 189
T 190
T 191
T 192
T 193
T 194
T 195
T 196
T 197
T 198
T 199
T 200
T 201
T 202
T 203
T 204
END

EOF
